Minimize
  0.0714285714285714 y_0 + 0.1428571428571428 y_1 + 0.125 y_2
   + 0.1666666666666667 y_3 + 0.125 y_4 + 0.25 y_5 + 0.1428571428571428 y_6
   + 0.1666666666666667 y_7 + 0.1428571428571428 y_8
   + 0.1666666666666667 y_9 + 0.25 y_10 + 0.3333333333333333 y_11
   + 0.1666666666666667 y_12 + 0.1666666666666667 y_13 + 0.125 y_14
   + 0.1111111111111111 y_15 + 0.1 y_16 + 0.0909090909090909 y_17
   + 0.1666666666666667 y_18 + 0.1666666666666667 y_19 + 0.1 y_20 + y_21
   + 0.25 y_22 + 0.0909090909090909 y_23 + 0.125 y_24 + 0.125 y_25
   + 0.1111111111111111 y_26 + 0.2 y_27 + 0.1 y_28 + 0.125 y_29
   + 0.1428571428571428 y_30 + 0.5 y_31 + 0.0833333333333333 y_32
   + 0.2 y_33 + 0.1 y_34 + 0.1428571428571428 y_35 + 0.125 y_36
   + 0.1111111111111111 y_37 + 0.1 y_38 + 0.1111111111111111 y_39
   + 0.1666666666666667 y_40 + 0.1 y_41 + 0.1428571428571428 y_42
   + 0.2 y_43 + 0.1428571428571428 y_44 + 0.3333333333333333 y_45
   + 0.0909090909090909 y_46 + 0.0666666666666667 y_47 + 0.125 y_48
   + 0.125 y_49 + 0.3333333333333333 y_50 + 0.0833333333333333 y_51
   + 0.0833333333333333 y_52 + 0.0909090909090909 y_53
   + 0.0714285714285714 y_54 + 0.2 y_55 + 0.0909090909090909 y_56
   + 0.1111111111111111 y_57 + 0.1428571428571428 y_58 + 0.1 y_59
   + 0.2 y_60 + 0.3333333333333333 y_61 + 0.0714285714285714 y_62
   + 0.1 y_63 + 0.1 y_64 + 0.1 y_65 + y_66 + 0.1111111111111111 y_67
   + 0.1111111111111111 y_68 + 0.2 y_69 + 0.1428571428571428 y_70
   + 0.125 y_71 + 0.0666666666666667 y_72 + 0.1428571428571428 y_73
   + 0.3333333333333333 y_74 + 0.2 y_75 + 0.1 y_76
   + 0.0833333333333333 y_77 + 0.1111111111111111 y_78
   + 0.0909090909090909 y_79 + 0.0909090909090909 y_80
   + 0.0769230769230769 y_81 + 0.1 y_82 + 0.1 y_83
   + 0.1111111111111111 y_84 + 0.1111111111111111 y_85 + 0.125 y_86
   + 0.5 y_87 + 0.1 y_88 + 0.5 y_89 + 0.3333333333333333 y_90 + 0.1 y_91
   + 0.1111111111111111 y_92 + 0.125 y_93 + 0.1 y_94 + 0.1 y_95 + 0.25 y_96
   + 0.0833333333333333 y_97 + 0.1111111111111111 y_98
   + 0.0909090909090909 y_99 - 16.76371961371961 Constant
Subject To
 c_0: y_79 = 1
 c_1_0: y_0 + y_47 + y_62 + y_80 >= 1
 c_1_1: y_1 + y_10 + y_13 + y_15 + y_18 + y_22 + y_30 + y_33 + y_36 + y_39
   + y_43 + y_46 + y_48 >= 1
 c_1_2: y_2 + y_8 + y_9 + y_19 + y_20 + y_26 + y_28 + y_55 + y_63 + y_68
   + y_91 >= 1
 c_1_3: y_3 + y_7 + y_10 + y_12 + y_18 + y_30 + y_43 + y_48 + y_50 + y_69
   + y_74 + y_75 + y_86 + y_87 + y_98 >= 1
 c_1_4: y_4 + y_24 + y_27 + y_29 + y_37 + y_44 + y_49 + y_57 + y_58 + y_60
   + y_80 + y_84 + y_85 >= 1
 c_1_5: y_5 + y_8 + y_9 + y_11 + y_19 + y_21 + y_31 + y_42 + y_45 + y_55
   + y_60 + y_61 + y_66 + y_89 + y_90 + y_96 >= 1
 c_1_6: y_6 + y_13 + y_17 + y_22 + y_34 + y_35 + y_64 + y_65 + y_68 + y_76
   + y_91 + y_93 >= 1
 c_1_7: y_3 + y_7 + y_10 + y_12 + y_18 + y_30 + y_43 + y_50 + y_67 + y_69
   + y_74 + y_75 + y_86 + y_87 + y_98 >= 1
 c_1_8: y_2 + y_5 + y_8 + y_9 + y_14 + y_19 + y_20 + y_24 + y_25 + y_26
   + y_41 + y_42 + y_55 + y_58 + y_82 + y_92 + y_96 >= 1
 c_1_9: y_2 + y_5 + y_8 + y_9 + y_11 + y_14 + y_19 + y_24 + y_25 + y_26
   + y_41 + y_42 + y_55 + y_58 + y_60 + y_92 + y_96 >= 1
 c_1_10: y_1 + y_3 + y_7 + y_10 + y_12 + y_18 + y_21 + y_22 + y_30 + y_31
   + y_33 + y_43 + y_45 + y_50 + y_61 + y_66 + y_69 + y_74 + y_87 + y_89
   + y_90 >= 1
 c_1_11: y_5 + y_9 + y_11 + y_19 + y_21 + y_27 + y_31 + y_42 + y_45 + y_55
   + y_58 + y_60 + y_61 + y_66 + y_74 + y_87 + y_89 + y_90 + y_96 >= 1
 c_1_12: y_3 + y_7 + y_10 + y_12 + y_18 + y_30 + y_40 + y_43 + y_50 + y_67
   + y_69 + y_73 + y_74 + y_75 + y_86 + y_87 + y_90 >= 1
 c_1_13: y_1 + y_6 + y_13 + y_22 + y_31 + y_33 + y_35 + y_45 + y_61 + y_87
   + y_89 + y_93 >= 1
 c_1_14: y_8 + y_9 + y_14 + y_24 + y_25 + y_26 + y_37 + y_41 + y_42 + y_49
   + y_53 + y_56 + y_58 + y_60 + y_82 + y_84 + y_92 + y_99 >= 1
 c_1_15: y_1 + y_15 + y_18 + y_30 + y_36 + y_39 + y_46 + y_48 + y_78 >= 1
 c_1_16: y_16 + y_38 + y_51 + y_52 + y_70 + y_71 + y_73 + y_79 + y_88 >= 1
 c_1_17: y_6 + y_17 + y_34 + y_35 + y_64 + y_65 + y_76 + y_77 + y_93 >= 1
 c_1_18: y_1 + y_3 + y_7 + y_10 + y_12 + y_15 + y_18 + y_22 + y_30 + y_31
   + y_33 + y_36 + y_43 + y_48 + y_50 + y_74 + y_78 + y_86 + y_87 >= 1
 c_1_19: y_2 + y_5 + y_8 + y_9 + y_11 + y_19 + y_20 + y_26 + y_42 + y_55
   + y_61 + y_96 >= 1
 c_1_20: y_2 + y_8 + y_19 + y_20 + y_26 + y_28 + y_63 + y_68 + y_91 >= 1
 c_1_21: y_5 + y_10 + y_11 + y_21 + y_22 + y_27 + y_31 + y_33 + y_45 + y_50
   + y_55 + y_61 + y_66 + y_69 + y_74 + y_87 + y_89 + y_90 + y_96 >= 1
 c_1_22: y_1 + y_6 + y_10 + y_13 + y_18 + y_21 + y_22 + y_31 + y_33 + y_35
   + y_43 + y_45 + y_61 + y_66 + y_74 + y_87 + y_89 >= 1
 c_1_23: y_23 + y_32 + y_78 + y_83 + y_86 + y_98 >= 1
 c_1_24: y_4 + y_8 + y_9 + y_14 + y_24 + y_25 + y_26 + y_37 + y_41 + y_42
   + y_49 + y_56 + y_57 + y_58 + y_60 + y_82 + y_84 + y_92 >= 1
 c_1_25: y_8 + y_9 + y_14 + y_24 + y_25 + y_26 + y_37 + y_41 + y_42 + y_53
   + y_58 + y_60 + y_82 + y_84 + y_92 + y_99 >= 1
 c_1_26: y_2 + y_8 + y_9 + y_14 + y_19 + y_20 + y_24 + y_25 + y_26 + y_28
   + y_41 + y_42 + y_53 + y_82 + y_92 + y_99 >= 1
 c_1_27: y_4 + y_11 + y_21 + y_27 + y_29 + y_40 + y_44 + y_49 + y_57 + y_60
   + y_66 + y_70 + y_85 + y_90 >= 1
 c_1_28: y_2 + y_20 + y_26 + y_28 + y_63 + y_68 + y_81 + y_91 >= 1
 c_1_29: y_4 + y_27 + y_29 + y_44 + y_49 + y_57 + y_60 + y_70 + y_80 + y_84
   + y_85 >= 1
 c_1_30: y_1 + y_3 + y_7 + y_10 + y_12 + y_15 + y_18 + y_30 + y_33 + y_36
   + y_43 + y_48 + y_78 + y_83 + y_86 + y_98 >= 1
 c_1_31: y_5 + y_10 + y_11 + y_13 + y_18 + y_21 + y_22 + y_31 + y_33 + y_43
   + y_45 + y_50 + y_55 + y_61 + y_66 + y_69 + y_74 + y_87 + y_89 + y_90
   + y_96 >= 1
 c_1_32: y_23 + y_32 + y_83 + y_98 >= 1
 c_1_33: y_1 + y_10 + y_13 + y_18 + y_21 + y_22 + y_30 + y_31 + y_33 + y_36
   + y_43 + y_45 + y_50 + y_61 + y_66 + y_74 + y_87 + y_89 >= 1
 c_1_34: y_6 + y_17 + y_34 + y_35 + y_65 + y_76 + y_77 + y_93 >= 1
 c_1_35: y_6 + y_13 + y_17 + y_22 + y_34 + y_35 + y_64 + y_65 + y_68 + y_76
   + y_91 + y_93 >= 1
 c_1_36: y_1 + y_15 + y_18 + y_30 + y_33 + y_36 + y_39 + y_46 + y_48 >= 1
 c_1_37: y_4 + y_14 + y_24 + y_25 + y_37 + y_41 + y_42 + y_49 + y_56 + y_57
   + y_58 + y_60 + y_82 + y_84 + y_92 >= 1
 c_1_38: y_16 + y_38 + y_51 + y_52 + y_70 + y_71 + y_73 + y_79 + y_88 >= 1
 c_1_39: y_1 + y_15 + y_36 + y_39 + y_46 >= 1
 c_1_40: y_12 + y_27 + y_40 + y_44 + y_50 + y_69 + y_70 + y_71 + y_73
   + y_74 + y_75 + y_90 >= 1
 c_1_41: y_8 + y_9 + y_14 + y_24 + y_25 + y_26 + y_37 + y_41 + y_42 + y_53
   + y_58 + y_82 + y_92 + y_99 >= 1
 c_1_42: y_5 + y_8 + y_9 + y_11 + y_14 + y_19 + y_24 + y_25 + y_26 + y_37
   + y_41 + y_42 + y_55 + y_58 + y_60 + y_82 + y_92 + y_96 >= 1
 c_1_43: y_1 + y_3 + y_7 + y_10 + y_12 + y_18 + y_22 + y_30 + y_31 + y_33
   + y_43 + y_48 + y_50 + y_69 + y_74 + y_78 + y_86 + y_87 + y_89 >= 1
 c_1_44: y_4 + y_27 + y_29 + y_40 + y_44 + y_49 + y_57 + y_60 + y_70 + y_85
   >= 1
 c_1_45: y_5 + y_10 + y_11 + y_13 + y_21 + y_22 + y_31 + y_33 + y_45 + y_50
   + y_55 + y_61 + y_66 + y_74 + y_87 + y_89 + y_90 + y_96 >= 1
 c_1_46: y_1 + y_15 + y_36 + y_39 + y_46 >= 1
 c_1_47: y_0 + y_47 + y_62 + y_80 >= 1
 c_1_48: y_1 + y_3 + y_15 + y_18 + y_30 + y_36 + y_43 + y_48 + y_78 + y_83
   + y_86 + y_98 >= 1
 c_1_49: y_4 + y_14 + y_24 + y_27 + y_29 + y_37 + y_44 + y_49 + y_56 + y_57
   + y_58 + y_60 + y_84 + y_85 >= 1
 c_1_50: y_3 + y_7 + y_10 + y_12 + y_18 + y_21 + y_31 + y_33 + y_40 + y_43
   + y_45 + y_50 + y_61 + y_66 + y_69 + y_74 + y_75 + y_87 + y_89 + y_90
   >= 1
 c_1_51: y_16 + y_38 + y_51 + y_52 + y_71 + y_79 + y_88 >= 1
 c_1_52: y_16 + y_38 + y_51 + y_52 + y_71 + y_79 + y_88 >= 1
 c_1_53: y_14 + y_25 + y_26 + y_41 + y_53 + y_54 + y_81 + y_82 + y_92
   + y_99 >= 1
 c_1_54: y_53 + y_54 + y_72 + y_81 + y_99 >= 1
 c_1_55: y_2 + y_5 + y_8 + y_9 + y_11 + y_19 + y_21 + y_31 + y_42 + y_45
   + y_55 + y_60 + y_61 + y_66 + y_89 + y_96 >= 1
 c_1_56: y_14 + y_24 + y_37 + y_49 + y_56 + y_57 + y_82 + y_84 + y_92 >= 1
 c_1_57: y_4 + y_24 + y_27 + y_29 + y_37 + y_44 + y_49 + y_56 + y_57 + y_58
   + y_60 + y_80 + y_84 + y_85 >= 1
 c_1_58: y_4 + y_8 + y_9 + y_11 + y_14 + y_24 + y_25 + y_37 + y_41 + y_42
   + y_49 + y_57 + y_58 + y_60 + y_82 + y_84 + y_92 >= 1
 c_1_59: y_59 + y_67 + y_71 + y_73 + y_88 + y_94 + y_95 + y_97 >= 1
 c_1_60: y_4 + y_5 + y_9 + y_11 + y_14 + y_24 + y_25 + y_27 + y_29 + y_37
   + y_42 + y_44 + y_49 + y_55 + y_57 + y_58 + y_60 + y_84 + y_90 + y_92
   + y_96 >= 1
 c_1_61: y_5 + y_10 + y_11 + y_13 + y_19 + y_21 + y_22 + y_31 + y_33 + y_45
   + y_50 + y_55 + y_61 + y_66 + y_74 + y_87 + y_89 + y_90 + y_96 >= 1
 c_1_62: y_0 + y_47 + y_62 + y_80 >= 1
 c_1_63: y_2 + y_20 + y_28 + y_63 + y_64 + y_68 + y_91 >= 1
 c_1_64: y_6 + y_17 + y_35 + y_63 + y_64 + y_65 + y_68 + y_91 >= 1
 c_1_65: y_6 + y_17 + y_34 + y_35 + y_64 + y_65 + y_76 + y_77 + y_93 >= 1
 c_1_66: y_5 + y_10 + y_11 + y_21 + y_22 + y_27 + y_31 + y_33 + y_45 + y_50
   + y_55 + y_61 + y_66 + y_69 + y_74 + y_87 + y_89 + y_90 + y_96 >= 1
 c_1_67: y_7 + y_12 + y_59 + y_67 + y_69 + y_71 + y_73 + y_75 + y_86 + y_88
   + y_94 + y_95 + y_97 >= 1
 c_1_68: y_2 + y_6 + y_20 + y_28 + y_35 + y_63 + y_64 + y_68 + y_91 >= 1
 c_1_69: y_3 + y_7 + y_10 + y_12 + y_21 + y_31 + y_40 + y_43 + y_50 + y_66
   + y_67 + y_69 + y_70 + y_73 + y_74 + y_75 + y_87 + y_89 + y_90 >= 1
 c_1_70: y_16 + y_27 + y_29 + y_38 + y_40 + y_44 + y_69 + y_70 + y_71
   + y_73 + y_75 + y_85 + y_88 >= 1
 c_1_71: y_16 + y_38 + y_40 + y_51 + y_52 + y_59 + y_67 + y_70 + y_71
   + y_73 + y_75 + y_79 + y_88 >= 1
 c_1_72: y_54 + y_72 + y_81 >= 1
 c_1_73: y_12 + y_16 + y_38 + y_40 + y_59 + y_67 + y_69 + y_70 + y_71
   + y_73 + y_75 + y_88 >= 1
 c_1_74: y_3 + y_7 + y_10 + y_11 + y_12 + y_18 + y_21 + y_22 + y_31 + y_33
   + y_40 + y_43 + y_45 + y_50 + y_61 + y_66 + y_69 + y_74 + y_75 + y_87
   + y_89 + y_90 >= 1
 c_1_75: y_3 + y_7 + y_12 + y_40 + y_50 + y_67 + y_69 + y_70 + y_71 + y_73
   + y_74 + y_75 + y_90 >= 1
 c_1_76: y_6 + y_17 + y_34 + y_35 + y_65 + y_76 + y_77 + y_93 >= 1
 c_1_77: y_17 + y_34 + y_65 + y_76 + y_77 + y_93 >= 1
 c_1_78: y_15 + y_18 + y_23 + y_30 + y_43 + y_48 + y_78 + y_83 + y_86
   + y_98 >= 1
 c_1_79: y_16 + y_38 + y_51 + y_52 + y_71 + y_79 + y_88 >= 1
 c_1_80: y_0 + y_4 + y_29 + y_47 + y_57 + y_62 + y_80 + y_85 >= 1
 c_1_81: y_28 + y_53 + y_54 + y_72 + y_81 >= 1
 c_1_82: y_8 + y_14 + y_24 + y_25 + y_26 + y_37 + y_41 + y_42 + y_53 + y_56
   + y_58 + y_82 + y_84 + y_92 + y_99 >= 1
 c_1_83: y_23 + y_30 + y_32 + y_48 + y_78 + y_83 + y_86 + y_98 >= 1
 c_1_84: y_4 + y_14 + y_24 + y_25 + y_29 + y_37 + y_49 + y_56 + y_57 + y_58
   + y_60 + y_82 + y_84 + y_92 >= 1
 c_1_85: y_4 + y_27 + y_29 + y_44 + y_49 + y_57 + y_70 + y_80 + y_85 >= 1
 c_1_86: y_3 + y_7 + y_12 + y_18 + y_23 + y_30 + y_43 + y_48 + y_67 + y_78
   + y_83 + y_86 + y_94 + y_98 >= 1
 c_1_87: y_3 + y_7 + y_10 + y_11 + y_12 + y_13 + y_18 + y_21 + y_22 + y_31
   + y_33 + y_43 + y_45 + y_50 + y_61 + y_66 + y_69 + y_74 + y_87 + y_89
   + y_90 + y_96 >= 1
 c_1_88: y_16 + y_38 + y_51 + y_52 + y_59 + y_67 + y_70 + y_71 + y_73
   + y_79 + y_88 >= 1
 c_1_89: y_5 + y_10 + y_11 + y_13 + y_21 + y_22 + y_31 + y_33 + y_43 + y_45
   + y_50 + y_55 + y_61 + y_66 + y_69 + y_74 + y_87 + y_89 + y_90 + y_96
   >= 1
 c_1_90: y_5 + y_10 + y_11 + y_12 + y_21 + y_27 + y_31 + y_40 + y_45 + y_50
   + y_60 + y_61 + y_66 + y_69 + y_74 + y_75 + y_87 + y_89 + y_90 + y_96
   >= 1
 c_1_91: y_2 + y_6 + y_20 + y_28 + y_35 + y_63 + y_64 + y_68 + y_91 >= 1
 c_1_92: y_8 + y_9 + y_14 + y_24 + y_25 + y_26 + y_37 + y_41 + y_42 + y_53
   + y_56 + y_58 + y_60 + y_82 + y_84 + y_92 + y_99 >= 1
 c_1_93: y_6 + y_13 + y_17 + y_34 + y_35 + y_65 + y_76 + y_77 + y_93 >= 1
 c_1_94: y_59 + y_67 + y_86 + y_94 + y_95 + y_97 + y_98 >= 1
 c_1_95: y_59 + y_67 + y_94 + y_95 + y_97 >= 1
 c_1_96: y_5 + y_8 + y_9 + y_11 + y_19 + y_21 + y_31 + y_42 + y_45 + y_55
   + y_60 + y_61 + y_66 + y_87 + y_89 + y_90 + y_96 >= 1
 c_1_97: y_59 + y_67 + y_94 + y_95 + y_97 >= 1
 c_1_98: y_3 + y_7 + y_23 + y_30 + y_32 + y_48 + y_78 + y_83 + y_86 + y_94
   + y_98 >= 1
 c_1_99: y_14 + y_25 + y_26 + y_41 + y_53 + y_54 + y_82 + y_92 + y_99 >= 1
Bounds
 Constant = 1
Binaries
 y_0 y_1 y_2 y_3 y_4 y_5 y_6 y_7 y_8 y_9 y_10 y_11 y_12 y_13 y_14 y_15 y_16
 y_17 y_18 y_19 y_20 y_21 y_22 y_23 y_24 y_25 y_26 y_27 y_28 y_29 y_30 y_31
 y_32 y_33 y_34 y_35 y_36 y_37 y_38 y_39 y_40 y_41 y_42 y_43 y_44 y_45 y_46
 y_47 y_48 y_49 y_50 y_51 y_52 y_53 y_54 y_55 y_56 y_57 y_58 y_59 y_60 y_61
 y_62 y_63 y_64 y_65 y_66 y_67 y_68 y_69 y_70 y_71 y_72 y_73 y_74 y_75 y_76
 y_77 y_78 y_79 y_80 y_81 y_82 y_83 y_84 y_85 y_86 y_87 y_88 y_89 y_90 y_91
 y_92 y_93 y_94 y_95 y_96 y_97 y_98 y_99
End
